681,76
667,318
326,462
225,554
644,643
963,794
994,507
963,794
1108,189
998,-30
926,-75
998,-30
909,332
672,434
482,342
699,349
734,433
745,605
681,826
644,643
575,460
415,448
261,406
573,193
681,76
761,366
808,533
745,605
808,533
826,511
734,433
734,379
635,264
602,-97
245,89
602,909
